
c turning on binary mode checking

c parsing input formula with 3656 variables and 22452 clauses

c finished parsing, read 84833 bytes from proof file

c detected empty clause; start verification via backward checking

c 48 of 22452 clauses in core                            

c 11 of 1945 lemmas in core using 59 resolution steps

c 0 RAT lemmas in core; 0 redundant literals in core lemmas

s VERIFIED

c verification time: 0.056 seconds
